32      4       
12      8       12      11      
0       0       0       0       0       3       2       3       4       
10      9       0       0       0       3       6       8       12      
6       1       0       0       0       3       5       7       17      
10      2       0       0       0       1       26      
9       0       8       0       0       2       11      20      
7       0       0       0       2       3       15      24      26      
3       0       0       0       4       2       9       18      
10      9       0       0       0       2       14      21      
8       0       0       0       10      2       10      26      
10      0       0       3       0       3       12      13      16      
7       0       0       6       0       3       14      19      25      
6       0       0       0       3       2       25      31      
10      7       0       0       0       2       15      24      
3       0       0       7       0       2       18      27      
7       0       0       0       10      3       19      20      21      
10      0       5       0       0       2       23      28      
4       0       0       4       0       1       18      
3       0       0       0       1       1       31      
3       8       0       0       0       2       23      28      
10      0       0       0       6       2       23      29      
10      0       0       6       0       2       22      30      
6       2       0       0       0       2       27      31      
9       2       0       0       0       1       30      
4       0       0       10      0       1       25      
5       5       0       0       0       1       27      
7       0       0       3       0       2       29      30      
7       6       0       0       0       1       28      
9       5       0       0       0       1       29      
7       1       0       0       0       1       32      
4       0       0       0       1       1       32      
6       0       6       0       0       1       32      
0       0       0       0       0       0       